certificates/rado_a15_c159_N52.cnf
c Rad2 upper bound instance: x1 + 15*x2 - x3 = 159, interval [1,52]
p cnf 52 356
1 7 11 0
-1 -7 -11 0
1 12 22 0
-1 -12 -22 0
1 13 37 0
-1 -13 -37 0
1 14 52 0
-1 -14 -52 0
2 8 11 0
-2 -8 -11 0
2 12 23 0
-2 -12 -23 0
2 13 38 0
-2 -13 -38 0
3 9 11 0
-3 -9 -11 0
3 12 24 0
-3 -12 -24 0
3 13 39 0
-3 -13 -39 0
4 10 11 0
-4 -10 -11 0
4 12 25 0
-4 -12 -25 0
4 13 40 0
-4 -13 -40 0
5 11 0
-5 -11 0
5 12 26 0
-5 -12 -26 0
5 13 41 0
-5 -13 -41 0
6 11 12 0
-6 -11 -12 0
6 12 27 0
-6 -12 -27 0
6 13 42 0
-6 -13 -42 0
7 11 13 0
-7 -11 -13 0
7 12 28 0
-7 -12 -28 0
7 13 43 0
-7 -13 -43 0
8 11 14 0
-8 -11 -14 0
8 12 29 0
-8 -12 -29 0
8 13 44 0
-8 -13 -44 0
9 11 15 0
-9 -11 -15 0
9 12 30 0
-9 -12 -30 0
9 13 45 0
-9 -13 -45 0
1 10 0
-1 -10 0
10 11 16 0
-10 -11 -16 0
10 12 31 0
-10 -12 -31 0
10 13 46 0
-10 -13 -46 0
2 10 11 0
-2 -10 -11 0
11 17 0
-11 -17 0
11 12 32 0
-11 -12 -32 0
11 13 47 0
-11 -13 -47 0
3 10 12 0
-3 -10 -12 0
11 12 18 0
-11 -12 -18 0
12 33 0
-12 -33 0
12 13 48 0
-12 -13 -48 0
4 10 13 0
-4 -10 -13 0
11 13 19 0
-11 -13 -19 0
12 13 34 0
-12 -13 -34 0
13 49 0
-13 -49 0
5 10 14 0
-5 -10 -14 0
11 14 20 0
-11 -14 -20 0
12 14 35 0
-12 -14 -35 0
13 14 50 0
-13 -14 -50 0
6 10 15 0
-6 -10 -15 0
11 15 21 0
-11 -15 -21 0
12 15 36 0
-12 -15 -36 0
13 15 51 0
-13 -15 -51 0
7 10 16 0
-7 -10 -16 0
11 16 22 0
-11 -16 -22 0
12 16 37 0
-12 -16 -37 0
13 16 52 0
-13 -16 -52 0
8 10 17 0
-8 -10 -17 0
11 17 23 0
-11 -17 -23 0
12 17 38 0
-12 -17 -38 0
9 10 18 0
-9 -10 -18 0
11 18 24 0
-11 -18 -24 0
12 18 39 0
-12 -18 -39 0
10 19 0
-10 -19 0
11 19 25 0
-11 -19 -25 0
12 19 40 0
-12 -19 -40 0
10 11 20 0
-10 -11 -20 0
11 20 26 0
-11 -20 -26 0
12 20 41 0
-12 -20 -41 0
10 12 21 0
-10 -12 -21 0
11 21 27 0
-11 -21 -27 0
12 21 42 0
-12 -21 -42 0
10 13 22 0
-10 -13 -22 0
11 22 28 0
-11 -22 -28 0
12 22 43 0
-12 -22 -43 0
10 14 23 0
-10 -14 -23 0
11 23 29 0
-11 -23 -29 0
12 23 44 0
-12 -23 -44 0
10 15 24 0
-10 -15 -24 0
11 24 30 0
-11 -24 -30 0
12 24 45 0
-12 -24 -45 0
1 9 25 0
-1 -9 -25 0
10 16 25 0
-10 -16 -25 0
11 25 31 0
-11 -25 -31 0
12 25 46 0
-12 -25 -46 0
2 9 26 0
-2 -9 -26 0
10 17 26 0
-10 -17 -26 0
11 26 32 0
-11 -26 -32 0
12 26 47 0
-12 -26 -47 0
3 9 27 0
-3 -9 -27 0
10 18 27 0
-10 -18 -27 0
11 27 33 0
-11 -27 -33 0
12 27 48 0
-12 -27 -48 0
4 9 28 0
-4 -9 -28 0
10 19 28 0
-10 -19 -28 0
11 28 34 0
-11 -28 -34 0
12 28 49 0
-12 -28 -49 0
5 9 29 0
-5 -9 -29 0
10 20 29 0
-10 -20 -29 0
11 29 35 0
-11 -29 -35 0
12 29 50 0
-12 -29 -50 0
6 9 30 0
-6 -9 -30 0
10 21 30 0
-10 -21 -30 0
11 30 36 0
-11 -30 -36 0
12 30 51 0
-12 -30 -51 0
7 9 31 0
-7 -9 -31 0
10 22 31 0
-10 -22 -31 0
11 31 37 0
-11 -31 -37 0
12 31 52 0
-12 -31 -52 0
8 9 32 0
-8 -9 -32 0
10 23 32 0
-10 -23 -32 0
11 32 38 0
-11 -32 -38 0
9 33 0
-9 -33 0
10 24 33 0
-10 -24 -33 0
11 33 39 0
-11 -33 -39 0
9 10 34 0
-9 -10 -34 0
10 25 34 0
-10 -25 -34 0
11 34 40 0
-11 -34 -40 0
9 11 35 0
-9 -11 -35 0
10 26 35 0
-10 -26 -35 0
11 35 41 0
-11 -35 -41 0
9 12 36 0
-9 -12 -36 0
10 27 36 0
-10 -27 -36 0
11 36 42 0
-11 -36 -42 0
9 13 37 0
-9 -13 -37 0
10 28 37 0
-10 -28 -37 0
11 37 43 0
-11 -37 -43 0
9 14 38 0
-9 -14 -38 0
10 29 38 0
-10 -29 -38 0
11 38 44 0
-11 -38 -44 0
9 15 39 0
-9 -15 -39 0
10 30 39 0
-10 -30 -39 0
11 39 45 0
-11 -39 -45 0
1 8 40 0
-1 -8 -40 0
9 16 40 0
-9 -16 -40 0
10 31 40 0
-10 -31 -40 0
11 40 46 0
-11 -40 -46 0
2 8 41 0
-2 -8 -41 0
9 17 41 0
-9 -17 -41 0
10 32 41 0
-10 -32 -41 0
11 41 47 0
-11 -41 -47 0
3 8 42 0
-3 -8 -42 0
9 18 42 0
-9 -18 -42 0
10 33 42 0
-10 -33 -42 0
11 42 48 0
-11 -42 -48 0
4 8 43 0
-4 -8 -43 0
9 19 43 0
-9 -19 -43 0
10 34 43 0
-10 -34 -43 0
11 43 49 0
-11 -43 -49 0
5 8 44 0
-5 -8 -44 0
9 20 44 0
-9 -20 -44 0
10 35 44 0
-10 -35 -44 0
11 44 50 0
-11 -44 -50 0
6 8 45 0
-6 -8 -45 0
9 21 45 0
-9 -21 -45 0
10 36 45 0
-10 -36 -45 0
11 45 51 0
-11 -45 -51 0
7 8 46 0
-7 -8 -46 0
9 22 46 0
-9 -22 -46 0
10 37 46 0
-10 -37 -46 0
11 46 52 0
-11 -46 -52 0
8 47 0
-8 -47 0
9 23 47 0
-9 -23 -47 0
10 38 47 0
-10 -38 -47 0
8 9 48 0
-8 -9 -48 0
9 24 48 0
-9 -24 -48 0
10 39 48 0
-10 -39 -48 0
8 10 49 0
-8 -10 -49 0
9 25 49 0
-9 -25 -49 0
10 40 49 0
-10 -40 -49 0
8 11 50 0
-8 -11 -50 0
9 26 50 0
-9 -26 -50 0
10 41 50 0
-10 -41 -50 0
8 12 51 0
-8 -12 -51 0
9 27 51 0
-9 -27 -51 0
10 42 51 0
-10 -42 -51 0
8 13 52 0
-8 -13 -52 0
9 28 52 0
-9 -28 -52 0
10 43 52 0
-10 -43 -52 0
