certificates/rado_a15_c159_N52.drat
8 13 -50 -52 0
13 -50 -52 0
d 8 13 -50 -52 0
-50 -52 0
d 13 -50 -52 0
-47 50 0
-52 0
13 50 0
5 14 0
d 10 5 14 0
50 0
14 0
-13 0
49 0
16 0
8 0
-10 0
-47 0
-11 0
1 0
19 0
43 0
20 0
4 0
2 0
46 0
22 0
38 0
41 0
0
